
Gurobi 10.0.1 (linux64) logging started Fri 11 Aug 2023 09:18:25 AM CDT

Set parameter LogFile to value "/home/dlcole3/graph_abstraction/plasmoexamples/SHP_serial/SHP_reserve_requirements/gurobi_logs/logfile7.log"
Set parameter NodefileStart to value 0.0005
Set parameter TimeLimit to value 36000
Gurobi Optimizer version 10.0.1 build v10.0.1rc0 (linux64)

CPU model: Intel(R) Xeon(R) CPU E5-2698 v4 @ 2.20GHz, instruction set [SSE2|AVX|AVX2]
Thread count: 40 physical cores, 80 logical processors, using up to 8 threads


Warning: excessive time spent in model updates.
Consider calling update less frequently.

Optimize a model with 1105538 rows, 641709 columns and 4644125 nonzeros
Model fingerprint: 0xfe90b6b4
Variable types: 599982 continuous, 41727 integer (41727 binary)
Coefficient statistics:
  Matrix range     [5e-02, 2e+04]
  Objective range  [2e-01, 8e+04]
  Bounds range     [5e-02, 2e+04]
  RHS range        [3e-03, 7e+03]
Presolve removed 269253 rows and 115726 columns (presolve time = 5s) ...
Presolve removed 276980 rows and 116546 columns (presolve time = 10s) ...
Presolve removed 278953 rows and 119557 columns (presolve time = 15s) ...
Presolve removed 291463 rows and 124183 columns (presolve time = 20s) ...
Presolve removed 292243 rows and 124993 columns (presolve time = 25s) ...
Presolve removed 292283 rows and 125043 columns (presolve time = 30s) ...
Presolve removed 292283 rows and 125043 columns (presolve time = 35s) ...
Presolve removed 292583 rows and 125063 columns (presolve time = 40s) ...
Sparsify removed 202002 nonzeros (5%)
Presolve removed 292583 rows and 123103 columns
Presolve time: 42.60s
Presolved: 812955 rows, 518606 columns, 3978901 nonzeros
Variable types: 484886 continuous, 33720 integer (33654 binary)

Deterministic concurrent LP optimizer: primal simplex, dual simplex, and barrier
Showing barrier log only...

Root barrier log...

Elapsed ordering time = 16s
Elapsed ordering time = 20s
Elapsed ordering time = 29s
Elapsed ordering time = 31s
Elapsed ordering time = 35s
Elapsed ordering time = 43s
Elapsed ordering time = 45s
Elapsed ordering time = 50s
Elapsed ordering time = 56s
Elapsed ordering time = 60s
Elapsed ordering time = 65s
Ordering time: 68.10s

Barrier statistics:
 Dense cols : 211
 AA' NZ     : 2.398e+07
 Factor NZ  : 3.709e+08 (roughly 3.5 GB of memory)
 Factor Ops : 1.724e+12 (roughly 16 seconds per iteration)
 Threads    : 5

                  Objective                Residual
Iter       Primal          Dual         Primal    Dual     Compl     Time
   0  -2.23268741e+11 -1.80553468e+13  1.23e+04 8.44e+03  1.15e+08   134s
   1  -1.54658296e+11 -1.33252426e+13  8.63e+03 5.89e+05  7.22e+07   144s
   2  -1.08897930e+11 -8.33757755e+12  6.18e+03 1.83e+04  4.60e+07   157s
   3  -3.11799889e+10 -3.63528705e+12  1.96e+03 2.26e+00  1.40e+07   172s
   4  -8.46685604e+09 -1.84996510e+12  7.30e+02 2.44e-01  5.10e+06   187s
   5   2.34182207e+09 -8.56475907e+11  1.73e+02 1.26e-01  1.32e+06   203s
   6   4.60712858e+09 -3.51113168e+11  6.70e+01 4.30e-02  4.40e+05   220s
   7   5.07423281e+09 -1.68331059e+11  2.07e+01 1.56e-02  1.52e+05   236s
   8   3.50593470e+09 -4.48258084e+10  5.98e+00 4.63e-03  3.61e+04   253s
   9   8.95872321e+08 -1.21417790e+10  1.15e+00 1.83e-03  8.31e+03   271s
  10   2.36619415e+08 -2.46860696e+09  2.11e-01 4.36e-04  1.63e+03   288s
  11   8.44336084e+07 -2.02949686e+08  2.82e-03 9.44e-05  1.67e+02   307s
  12   6.25005906e+07 -1.53269791e+07  1.73e-04 2.10e-04  4.53e+01   327s
  13   5.42958127e+07  1.91972013e+07  5.51e-05 6.83e-04  2.04e+01   346s
  14   5.01741839e+07  3.37201191e+07  2.56e-05 2.62e-04  9.58e+00   362s
  15   4.76648724e+07  3.94865106e+07  1.28e-05 1.42e-04  4.76e+00   378s
  16   4.65408295e+07  4.21245294e+07  8.74e-06 6.73e-05  2.57e+00   396s
  17   4.60394830e+07  4.29537676e+07  6.81e-06 4.05e-05  1.80e+00   412s
  18   4.52668450e+07  4.34505380e+07  3.83e-06 2.36e-05  1.06e+00   428s
  19   4.47593849e+07  4.36853317e+07  2.00e-06 1.63e-05  6.25e-01   443s
  20   4.46080932e+07  4.39050697e+07  1.46e-06 8.84e-06  4.09e-01   458s
  21   4.44809314e+07  4.39837507e+07  1.00e-06 5.95e-06  2.89e-01   472s
  22   4.43954268e+07  4.40433857e+07  7.02e-07 4.12e-06  2.05e-01   487s
  23   4.43632897e+07  4.40611054e+07  5.88e-07 3.60e-06  1.76e-01   502s
  24   4.43323912e+07  4.41163829e+07  4.80e-07 2.08e-06  1.26e-01   517s
  25   4.43121567e+07  4.41253437e+07  4.08e-07 1.84e-06  1.09e-01   533s
  26   4.42699161e+07  4.41514912e+07  2.66e-07 1.12e-06  6.89e-02   549s
  27   4.42434814e+07  4.41639197e+07  4.48e-07 7.32e-07  4.63e-02   568s
  28   4.42227382e+07  4.41733565e+07  3.34e-07 4.61e-07  2.87e-02   593s
  29   4.42129707e+07  4.41812131e+07  2.19e-07 2.26e-07  1.85e-02   618s
  30   4.42027370e+07  4.41837484e+07  1.72e-07 1.51e-07  1.11e-02   642s
  31   4.41997846e+07  4.41852925e+07  2.00e-07 1.06e-07  8.44e-03   664s
  32   4.41981179e+07  4.41862725e+07  2.24e-07 7.94e-08  6.90e-03   683s
  33   4.41953983e+07  4.41871804e+07  1.61e-07 5.26e-08  4.78e-03   700s
  34   4.41948214e+07  4.41878146e+07  1.56e-07 3.61e-08  4.08e-03   720s
  35   4.41914415e+07  4.41885558e+07  2.07e-07 1.55e-08  1.68e-03   742s
  36   4.41906669e+07  4.41888933e+07  1.51e-07 7.22e-09  1.03e-03   763s
  37   4.41901969e+07  4.41890917e+07  1.00e-07 3.18e-09  6.43e-04   783s
  38   4.41898462e+07  4.41891111e+07  1.04e-07 4.04e-09  4.28e-04   801s
  39   4.41896889e+07  4.41891405e+07  1.44e-07 5.19e-09  3.19e-04   818s
  40   4.41895742e+07  4.41891574e+07  1.62e-07 5.73e-09  2.43e-04   836s
  41   4.41894496e+07  4.41891663e+07  1.70e-07 8.28e-09  1.65e-04   854s
  42   4.41893692e+07  4.41891706e+07  1.71e-07 3.09e-09  1.16e-04   872s
  43   4.41893234e+07  4.41891747e+07  2.01e-07 4.15e-09  8.66e-05   892s
  44   4.41892866e+07  4.41891840e+07  1.11e-06 7.11e-09  5.97e-05   914s
  45   4.41892380e+07  4.41891903e+07  1.11e-06 3.55e-09  2.77e-05   939s
  46   4.41892234e+07  4.41891925e+07  8.37e-07 3.70e-09  1.80e-05   961s

Barrier solved model in 46 iterations and 961.23 seconds (920.27 work units)
Optimal objective 4.41892234e+07


Root crossover log...

  348112 DPushes remaining with DInf 3.0449644e-02               963s
  149702 DPushes remaining with DInf 8.7944860e+03               967s
  116955 DPushes remaining with DInf 2.0925180e+01               970s
   89787 DPushes remaining with DInf 0.0000000e+00               976s
   73335 DPushes remaining with DInf 0.0000000e+00               981s
   57920 DPushes remaining with DInf 0.0000000e+00               987s
   50486 DPushes remaining with DInf 0.0000000e+00               991s
   42203 DPushes remaining with DInf 0.0000000e+00               996s
   34087 DPushes remaining with DInf 0.0000000e+00              1001s
   29012 DPushes remaining with DInf 0.0000000e+00              1005s
   23575 DPushes remaining with DInf 0.0000000e+00              1011s
   21021 DPushes remaining with DInf 0.0000000e+00              1016s
   19198 DPushes remaining with DInf 0.0000000e+00              1021s
   16491 DPushes remaining with DInf 0.0000000e+00              1026s
   14452 DPushes remaining with DInf 0.0000000e+00              1031s
   12773 DPushes remaining with DInf 0.0000000e+00              1035s
    9257 DPushes remaining with DInf 0.0000000e+00              1040s
    5237 DPushes remaining with DInf 0.0000000e+00              1047s
    4313 DPushes remaining with DInf 0.0000000e+00              1050s
    2283 DPushes remaining with DInf 0.0000000e+00              1055s
     724 DPushes remaining with DInf 0.0000000e+00              1060s
       0 DPushes remaining with DInf 0.0000000e+00              1062s

  230875 PPushes remaining with PInf 2.6577671e-01              1063s
   38199 PPushes remaining with PInf 3.5102942e-01              1076s
   14575 PPushes remaining with PInf 2.9023675e-01              1080s
    5463 PPushes remaining with PInf 2.4726160e-01              1087s
     747 PPushes remaining with PInf 7.5775693e-01              1092s
       0 PPushes remaining with PInf 5.3801982e+01              1094s

  Push phase complete: Pinf 5.3801982e+01, Dinf 2.2215513e+06   1094s


Root simplex log...

Iteration    Objective       Primal Inf.    Dual Inf.      Time
  391068    4.4189253e+07   0.000000e+00   2.221551e+06   1095s
  392245    4.4189194e+07   8.882236e+00   0.000000e+00   1100s
  392587    4.4189194e+07   0.000000e+00   0.000000e+00   1103s
  392587    4.4189194e+07   0.000000e+00   0.000000e+00   1105s
Concurrent spin time: 61.25s

Solved with barrier

Root relaxation: objective 4.418919e+07, 392587 iterations, 1119.09 seconds (1029.19 work units)

    Nodes    |    Current Node    |     Objective Bounds      |     Work
 Expl Unexpl |  Obj  Depth IntInf | Incumbent    BestBd   Gap | It/Node Time

     0     0 4.4189e+07    0  528          - 4.4189e+07      -     - 1185s
     0     0 4.4195e+07    0  484          - 4.4195e+07      -     - 1278s
     0     0 4.4195e+07    0  483          - 4.4195e+07      -     - 1279s
     0     0 4.4195e+07    0  482          - 4.4195e+07      -     - 1311s
     0     0 4.4195e+07    0  503          - 4.4195e+07      -     - 1316s
     0     0 4.4195e+07    0  534          - 4.4195e+07      -     - 1320s
     0     0 4.4195e+07    0  509          - 4.4195e+07      -     - 1323s
     0     0 4.4195e+07    0  530          - 4.4195e+07      -     - 1324s
     0     0 4.4195e+07    0  484          - 4.4195e+07      -     - 1352s
     0     0 4.4195e+07    0  483          - 4.4195e+07      -     - 1354s
     0     0 4.4196e+07    0  487          - 4.4196e+07      -     - 1379s
     0     0 4.4196e+07    0  487          - 4.4196e+07      -     - 1383s
     0     0 4.4196e+07    0  465          - 4.4196e+07      -     - 1424s
     0     0 4.4196e+07    0  485          - 4.4196e+07      -     - 1460s
     0     0 4.4196e+07    0  464          - 4.4196e+07      -     - 1464s
     0     0 4.4196e+07    0  468          - 4.4196e+07      -     - 1468s
     0     0 4.4196e+07    0  434          - 4.4196e+07      -     - 1507s
     0     0 4.4196e+07    0  434          - 4.4196e+07      -     - 1558s
     0     0 4.4196e+07    0  436          - 4.4196e+07      -     - 1561s
     0     0 4.4196e+07    0  420          - 4.4196e+07      -     - 1581s
     0     0 4.4196e+07    0  421          - 4.4196e+07      -     - 1619s
     0     0 4.4196e+07    0  446          - 4.4196e+07      -     - 1622s
     0     0 4.4196e+07    0  448          - 4.4196e+07      -     - 1626s
     0     0 4.4197e+07    0  454          - 4.4197e+07      -     - 1646s
     0     0 4.4197e+07    0  459          - 4.4197e+07      -     - 1694s
     0     0 4.4197e+07    0  461          - 4.4197e+07      -     - 1698s
     0     0 4.4197e+07    0  459          - 4.4197e+07      -     - 1718s
     0     0 4.4197e+07    0  463          - 4.4197e+07      -     - 1745s
     0     0 4.4197e+07    0  448          - 4.4197e+07      -     - 1765s
     0     0 4.4197e+07    0  448          - 4.4197e+07      -     - 1784s
     0     0 4.4197e+07    0  450          - 4.4197e+07      -     - 1802s
     0     0 4.4197e+07    0  451          - 4.4197e+07      -     - 1823s
     0     0 4.4197e+07    0  449          - 4.4197e+07      -     - 1842s
     0     0 4.4197e+07    0  451          - 4.4197e+07      -     - 1849s
     0     0 4.4198e+07    0  438          - 4.4198e+07      -     - 1867s
     0     0 4.4198e+07    0  442          - 4.4198e+07      -     - 1874s
     0     0 4.4198e+07    0  454          - 4.4198e+07      -     - 1891s
     0     0 4.4198e+07    0  455          - 4.4198e+07      -     - 1915s
     0     0 4.4198e+07    0  452          - 4.4198e+07      -     - 1932s
     0     0 4.4198e+07    0  451          - 4.4198e+07      -     - 1938s
     0     0 4.4198e+07    0  458          - 4.4198e+07      -     - 1954s
     0     0 4.4198e+07    0  458          - 4.4198e+07      -     - 1960s
     0     0 4.4198e+07    0  440          - 4.4198e+07      -     - 1976s
     0     0 4.4198e+07    0  440          - 4.4198e+07      -     - 2001s
     0     0 4.4198e+07    0  437          - 4.4198e+07      -     - 2017s
     0     0 4.4198e+07    0  436          - 4.4198e+07      -     - 2027s
     0     0 4.4198e+07    0  433          - 4.4198e+07      -     - 2042s
     0     0 4.4198e+07    0  433          - 4.4198e+07      -     - 2051s
     0     0 4.4198e+07    0  444          - 4.4198e+07      -     - 2065s
     0     0 4.4198e+07    0  444          - 4.4198e+07      -     - 2072s
     0     0 4.4198e+07    0  455          - 4.4198e+07      -     - 2086s
H    0     0                    1.115456e+10 4.4198e+07   100%     - 2088s
     0     0 4.4198e+07    0  455 1.1155e+10 4.4198e+07   100%     - 2101s
     0     2 4.4198e+07    0  455 1.1155e+10 4.4198e+07   100%     - 2180s
     1     4 4.4383e+07    1  466 1.1155e+10 4.4199e+07   100% 54985 2379s
     3     8 4.4893e+07    2  223 1.1155e+10 4.4257e+07   100% 46052 2525s
     7    16 4.4896e+07    3  237 1.1155e+10 4.4282e+07   100% 29110 2709s
    15    24 4.4897e+07    4  229 1.1155e+10 4.4314e+07   100% 21377 2759s
    23    32 4.4901e+07    4  224 1.1155e+10 4.4315e+07   100% 14997 3084s
H   31    40                    1.044019e+10 4.4319e+07   100% 16532 3248s
H   32    40                    9.545551e+09 4.4319e+07   100% 16062 3248s
H   33    40                    4.498272e+07 4.4319e+07  1.48% 15594 3248s

Cutting planes:
  Gomory: 81
  Implied bound: 205
  MIR: 159
  StrongCG: 2
  Flow cover: 769
  RLT: 66
  Relax-and-lift: 8

Explored 39 nodes (925916 simplex iterations) in 3248.92 seconds (3805.97 work units)
Thread count was 8 (of 80 available processors)

Solution count 5: 4.49827e+07 4.49827e+07 9.54555e+09 ... 1.11546e+10

Optimal solution found (tolerance 5.00e-02)
Best objective 4.498271674953e+07, best bound 4.431863649855e+07, gap 1.4763%

User-callback calls 784903, time in user-callback 3.10 sec
